benchmarks/VRPTW/TSPTW/solution/n200w40.005.txt.solution
1 93 105 9 106 171 4 146 113 137 77 170 117 143 75 193 68 107 26 44 85 132 3 43 28 37 54 63 31 182 122 174 82 73 126 150 39 200 50 160 165 111 55 16 96 41 194 164 101 153 87 25 198 91 19 65 167 177 119 58 27 6 10 144 168 92 181 52 78 62 130 70 33 166 24 147 88 5 129 154 134 38 141 159 172 192 66 29 116 138 97 189 13 145 11 133 8 155 20 12 180 64 2 98 108 34 15 149 21 112 191 61 131 120 115 23 186 84 109 190 71 79 32 185 114 80 121 184 118 125 59 90 94 53 136 175 127 161 14 110 89 60 95 56 187 197 49 46 81 67 86 124 123 188 48 45 142 103 162 173 179 135 178 100 22 169 99 183 163 76 35 57 7 42 40 128 18 196 151 30 157 74 17 104 156 199 139 36 176 152 47 158 69 51 83 140 72 102 201 195 148 
1037
